projected/problems_b25_r0_d7_m100_s666/_DIMACS/b25_d7_r0_s666_023.cnf
p cnf 220 353 25
c p show 1 2 3 4 5 6 7 8 9 10 11 12 13 14 15 16 17 18 19 20 21 22 23 24 25
-26 -4 0
-26 -9 0
-27 14 11 0
-28 27 0
-28 26 0
-29 17 6 0
-30 25 -15 0
-31 30 29 0
-32 31 0
-32 28 0
-33 -17 0
-33 -6 0
-34 -25 0
-34 15 0
-35 34 0
-35 33 0
-36 4 9 0
-37 -14 0
-37 -11 0
-38 37 36 0
-39 38 0
-39 35 0
-40 39 32 0
-41 -16 1 0
-42 17 0
-42 -18 0
-43 42 0
-43 41 0
-44 -25 7 0
-45 -14 14 0
-46 45 44 0
-47 46 43 0
-48 47 40 0
-49 -13 0
-49 -17 0
-50 4 0
-50 18 0
-51 50 49 0
-52 -11 14 0
-53 -14 11 0
-54 53 0
-54 52 0
-55 12 14 0
-56 55 0
-56 54 0
-57 56 51 0
-58 16 8 0
-59 6 0
-59 19 0
-60 59 0
-60 58 0
-61 6 -5 0
-62 -7 19 0
-63 62 61 0
-64 63 0
-64 60 0
-65 64 0
-65 57 0
-66 65 0
-66 48 0
-67 8 -16 0
-68 -14 0
-68 -13 0
-69 68 0
-69 67 0
-70 10 -24 0
-71 -7 0
-71 25 0
-72 71 70 0
-73 72 0
-73 69 0
-74 4 7 0
-75 -21 -2 0
-76 75 0
-76 74 0
-77 23 0
-78 -17 -7 0
-79 78 77 0
-80 79 0
-80 76 0
-81 80 73 0
-82 25 19 0
-83 -6 13 0
-84 83 0
-84 82 0
-85 14 17 0
-86 6 0
-86 -2 0
-87 86 0
-87 85 0
-88 87 84 0
-89 -12 0
-89 19 0
-90 -19 19 0
-91 90 0
-92 91 89 0
-93 -25 -8 0
-94 -20 3 0
-95 94 0
-95 93 0
-96 95 0
-96 92 0
-97 96 88 0
-98 97 81 0
-99 98 66 0
-100 7 10 0
-101 -7 0
-101 14 0
-102 101 0
-102 100 0
-103 9 -3 0
-104 -5 -4 0
-105 104 103 0
-106 105 0
-106 102 0
-107 14 0
-107 15 0
-108 -24 0
-108 24 0
-109 108 0
-110 109 0
-110 107 0
-111 -18 0
-111 -25 0
-112 20 9 0
-113 -9 -20 0
-114 113 0
-114 112 0
-115 114 111 0
-116 115 110 0
-117 18 25 0
-118 -20 0
-118 -9 0
-119 9 0
-119 20 0
-120 119 118 0
-121 120 0
-121 117 0
-122 -14 -15 0
-123 24 -24 0
-124 123 0
-125 124 122 0
-126 125 121 0
-127 126 0
-127 116 0
-128 127 106 0
-129 -14 0
-129 23 0
-130 6 -22 0
-131 130 0
-131 129 0
-132 -14 0
-132 -23 0
-133 -2 0
-133 -14 0
-134 133 0
-134 132 0
-135 134 131 0
-136 14 23 0
-137 2 14 0
-138 137 136 0
-139 14 -23 0
-140 -6 0
-140 22 0
-141 140 139 0
-142 141 138 0
-143 142 0
-143 135 0
-144 -19 5 0
-145 -1 0
-145 -7 0
-146 145 144 0
-147 17 19 0
-148 19 0
-148 10 0
-149 148 0
-149 147 0
-150 149 146 0
-151 150 0
-151 143 0
-152 151 128 0
-153 -10 -12 0
-154 5 -3 0
-155 154 0
-155 153 0
-156 -3 0
-156 9 0
-157 -3 25 0
-158 157 0
-158 156 0
-159 158 155 0
-160 19 0
-160 1 0
-161 1 0
-161 9 0
-162 -9 0
-162 -1 0
-163 162 161 0
-164 163 0
-164 160 0
-165 13 4 0
-166 3 0
-166 20 0
-167 166 0
-167 165 0
-168 167 0
-168 164 0
-169 168 0
-169 159 0
-170 -12 10 0
-171 6 -19 0
-172 171 0
-172 170 0
-173 -15 13 0
-174 -11 -12 0
-175 174 0
-175 173 0
-176 175 0
-176 172 0
-177 -7 8 0
-178 8 0
-178 21 0
-179 178 177 0
-180 -1 6 0
-181 -23 0
-181 6 0
-182 181 180 0
-183 182 0
-183 179 0
-184 183 176 0
-185 184 169 0
-186 12 0
-186 -10 0
-187 -6 0
-187 19 0
-188 187 186 0
-189 15 0
-189 -13 0
-190 11 0
-190 12 0
-191 190 189 0
-192 191 188 0
-193 7 0
-193 -8 0
-194 -8 -21 0
-195 194 0
-195 193 0
-196 1 0
-196 -6 0
-197 23 -6 0
-198 197 0
-198 196 0
-199 198 195 0
-200 199 0
-200 192 0
-201 10 0
-201 12 0
-202 -5 0
-202 3 0
-203 202 201 0
-204 3 -9 0
-205 3 0
-205 -25 0
-206 205 204 0
-207 206 0
-207 203 0
-208 -19 -1 0
-209 -1 -9 0
-210 9 1 0
-211 210 0
-211 209 0
-212 211 208 0
-213 -13 0
-213 -4 0
-214 -3 -20 0
-215 214 213 0
-216 215 212 0
-217 216 207 0
-218 217 200 0
-219 218 0
-219 185 0
-220 219 0
-220 152 0
220 99 0
-29 -33 0
-33 -29 0
-34 -30 0
-35 -31 0
-31 -35 0
-26 -36 0
-36 -26 0
-27 -37 0
-37 -27 0
-38 -28 0
-117 -111 0
-114 -120 0
-120 -114 0
-121 -115 0
-122 -107 0
-124 -109 0
-125 -110 0
-110 -125 0
-132 -136 0
-133 -137 0
-134 -138 0
-138 -134 0
-129 -139 0
-130 -140 0
-131 -141 0
-170 -186 0
-171 -187 0
-172 -188 0
-188 -172 0
-173 -189 0
-189 -173 0
-190 -174 0
-191 -175 0
-192 -176 0
-176 -192 0
-193 -177 0
-177 -193 0
-194 -178 0
-178 -194 0
-179 -195 0
-196 -180 0
-180 -196 0
-181 -197 0
-182 -198 0
-183 -199 0
-184 -200 0
-200 -184 0
-153 -201 0
-201 -153 0
-154 -202 0
-202 -154 0
-203 -155 0
-204 -156 0
-205 -157 0
-206 -158 0
-207 -159 0
-159 -207 0
-160 -208 0
-208 -160 0
-211 -163 0
-212 -164 0
-164 -212 0
-213 -165 0
-165 -213 0
-214 -166 0
-166 -214 0
-167 -215 0
-168 -216 0
-169 -217 0
