projected/problems_b25_r0_d7_m100_s666/b25_d7_r0_s666_023.smt2
(set-logic QF_UF)
(declare-fun A0 () Bool)
(declare-fun A1 () Bool)
(declare-fun A2 () Bool)
(declare-fun A3 () Bool)
(declare-fun A4 () Bool)
(declare-fun A5 () Bool)
(declare-fun A6 () Bool)
(declare-fun A7 () Bool)
(declare-fun A8 () Bool)
(declare-fun A9 () Bool)
(declare-fun A10 () Bool)
(declare-fun A11 () Bool)
(declare-fun A12 () Bool)
(declare-fun A13 () Bool)
(declare-fun A14 () Bool)
(declare-fun A15 () Bool)
(declare-fun A16 () Bool)
(declare-fun A17 () Bool)
(declare-fun A18 () Bool)
(declare-fun A19 () Bool)
(declare-fun A20 () Bool)
(declare-fun A21 () Bool)
(declare-fun A22 () Bool)
(declare-fun A23 () Bool)
(declare-fun A24 () Bool)
(assert (let ((.def_0 (or A16 A5))) (let ((.def_1 (not .def_0))) (let ((.def_2 (not A24))) (let ((.def_3 (and .def_2 A14))) (let ((.def_4 (and .def_3 .def_1))) (let ((.def_5 (not .def_4))) (let ((.def_6 (not A8))) (let ((.def_7 (not A3))) (let ((.def_8 (and .def_7 .def_6))) (let ((.def_9 (not .def_8))) (let ((.def_10 (or A13 A10))) (let ((.def_11 (not .def_10))) (let ((.def_12 (or .def_11 .def_9))) (let ((.def_13 (= .def_12 .def_5))) (let ((.def_14 (not .def_13))) (let ((.def_15 (not A0))) (let ((.def_16 (and A15 .def_15))) (let ((.def_17 (not A16))) (let ((.def_18 (or .def_17 A17))) (let ((.def_19 (or .def_18 .def_16))) (let ((.def_20 (or .def_2 A6))) (let ((.def_21 (not .def_20))) (let ((.def_22 (not A13))) (let ((.def_23 (and A13 .def_22))) (let ((.def_24 (and .def_23 .def_21))) (let ((.def_25 (and .def_24 .def_19))) (let ((.def_26 (not .def_25))) (let ((.def_27 (or .def_26 .def_14))) (let ((.def_28 (not A12))) (let ((.def_29 (and .def_28 .def_17))) (let ((.def_30 (not .def_29))) (let ((.def_31 (and A3 A17))) (let ((.def_32 (not .def_31))) (let ((.def_33 (and .def_32 .def_30))) (let ((.def_34 (not .def_33))) (let ((.def_35 (= A13 A10))) (let ((.def_36 (not A11))) (let ((.def_37 (and .def_36 .def_22))) (let ((.def_38 (not .def_37))) (let ((.def_39 (and .def_38 .def_35))) (let ((.def_40 (or .def_39 .def_34))) (let ((.def_41 (or A15 A7))) (let ((.def_42 (not A18))) (let ((.def_43 (not A5))) (let ((.def_44 (or .def_43 .def_42))) (let ((.def_45 (not .def_44))) (let ((.def_46 (and .def_45 .def_41))) (let ((.def_47 (not A4))) (let ((.def_48 (or A5 .def_47))) (let ((.def_49 (not .def_48))) (let ((.def_50 (not A6))) (let ((.def_51 (or .def_50 A18))) (let ((.def_52 (not .def_51))) (let ((.def_53 (and .def_52 .def_49))) (let ((.def_54 (not .def_53))) (let ((.def_55 (and .def_54 .def_46))) (let ((.def_56 (and .def_55 .def_40))) (let ((.def_57 (and .def_56 .def_27))) (let ((.def_58 (not .def_57))) (let ((.def_59 (not A15))) (let ((.def_60 (or A7 .def_59))) (let ((.def_61 (and .def_22 .def_28))) (let ((.def_62 (and .def_61 .def_60))) (let ((.def_63 (not A9))) (let ((.def_64 (and .def_63 A23))) (let ((.def_65 (not .def_64))) (let ((.def_66 (or A6 .def_2))) (let ((.def_67 (not .def_66))) (let ((.def_68 (or .def_67 .def_65))) (let ((.def_69 (and .def_68 .def_62))) (let ((.def_70 (not .def_69))) (let ((.def_71 (and .def_7 .def_50))) (let ((.def_72 (not .def_71))) (let ((.def_73 (and A20 A1))) (let ((.def_74 (not .def_73))) (let ((.def_75 (and .def_74 .def_72))) (let ((.def_76 (not .def_75))) (let ((.def_77 (not A22))) (let ((.def_78 (and .def_77 .def_77))) (let ((.def_79 (or .def_17 .def_50))) (let ((.def_80 (not .def_79))) (let ((.def_81 (and .def_80 .def_78))) (let ((.def_82 (or .def_81 .def_76))) (let ((.def_83 (and .def_82 .def_70))) (let ((.def_84 (not .def_83))) (let ((.def_85 (or A24 A18))) (let ((.def_86 (and A5 .def_28))) (let ((.def_87 (not .def_86))) (let ((.def_88 (and .def_87 .def_85))) (let ((.def_89 (or A13 A16))) (let ((.def_90 (not .def_89))) (let ((.def_91 (or .def_43 A1))) (let ((.def_92 (or .def_91 .def_90))) (let ((.def_93 (not .def_92))) (let ((.def_94 (or .def_93 .def_88))) (let ((.def_95 (not .def_94))) (let ((.def_96 (or A11 .def_42))) (let ((.def_97 (= A18 A18))) (let ((.def_98 (not .def_97))) (let ((.def_99 (and .def_98 .def_96))) (let ((.def_100 (and A24 A7))) (let ((.def_101 (not A19))) (let ((.def_102 (or .def_101 A2))) (let ((.def_103 (not .def_102))) (let ((.def_104 (or .def_103 .def_100))) (let ((.def_105 (or .def_104 .def_99))) (let ((.def_106 (and .def_105 .def_95))) (let ((.def_107 (not .def_106))) (let ((.def_108 (or .def_107 .def_84))) (let ((.def_109 (not .def_108))) (let ((.def_110 (and .def_109 .def_58))) (let ((.def_111 (and .def_50 .def_63))) (let ((.def_112 (and .def_50 A13))) (let ((.def_113 (not .def_112))) (let ((.def_114 (or .def_113 .def_111))) (let ((.def_115 (not .def_114))) (let ((.def_116 (not A2))) (let ((.def_117 (or A8 .def_116))) (let ((.def_118 (not .def_117))) (let ((.def_119 (and A4 A3))) (let ((.def_120 (and .def_119 .def_118))) (let ((.def_121 (not .def_120))) (let ((.def_122 (and .def_121 .def_115))) (let ((.def_123 (not .def_122))) (let ((.def_124 (or A17 A24))) (let ((.def_125 (= A8 .def_101))) (let ((.def_126 (not .def_125))) (let ((.def_127 (and .def_126 .def_124))) (let ((.def_128 (not A14))) (let ((.def_129 (or .def_22 .def_128))) (let ((.def_130 (not A23))) (let ((.def_131 (= .def_130 .def_130))) (let ((.def_132 (or .def_131 .def_129))) (let ((.def_133 (not .def_132))) (let ((.def_134 (= .def_133 .def_127))) (let ((.def_135 (not .def_134))) (let ((.def_136 (and .def_135 .def_123))) (let ((.def_137 (and .def_22 .def_77))) (let ((.def_138 (not A1))) (let ((.def_139 (and .def_138 .def_22))) (let ((.def_140 (and .def_139 .def_137))) (let ((.def_141 (not .def_140))) (let ((.def_142 (and .def_22 A22))) (let ((.def_143 (not A21))) (let ((.def_144 (or A5 .def_143))) (let ((.def_145 (and .def_144 .def_142))) (let ((.def_146 (= .def_145 .def_141))) (let ((.def_147 (not .def_146))) (let ((.def_148 (and A18 .def_47))) (let ((.def_149 (not .def_148))) (let ((.def_150 (or A0 A6))) (let ((.def_151 (not .def_150))) (let ((.def_152 (or .def_151 .def_149))) (let ((.def_153 (not .def_152))) (let ((.def_154 (or A16 A18))) (let ((.def_155 (or .def_42 .def_63))) (let ((.def_156 (not .def_155))) (let ((.def_157 (and .def_156 .def_154))) (let ((.def_158 (not .def_157))) (let ((.def_159 (and .def_158 .def_153))) (let ((.def_160 (or .def_159 .def_147))) (let ((.def_161 (and .def_160 .def_136))) (let ((.def_162 (or .def_36 A9))) (let ((.def_163 (or A5 .def_42))) (let ((.def_164 (and .def_163 .def_162))) (let ((.def_165 (not .def_164))) (let ((.def_166 (or .def_128 A12))) (let ((.def_167 (not .def_166))) (let ((.def_168 (and A10 A11))) (let ((.def_169 (or .def_168 .def_167))) (let ((.def_170 (or .def_169 .def_165))) (let ((.def_171 (not .def_170))) (let ((.def_172 (not A7))) (let ((.def_173 (and A6 .def_172))) (let ((.def_174 (not .def_173))) (let ((.def_175 (not A20))) (let ((.def_176 (or .def_172 .def_175))) (let ((.def_177 (not .def_176))) (let ((.def_178 (or .def_177 .def_174))) (let ((.def_179 (and A0 .def_43))) (let ((.def_180 (not .def_179))) (let ((.def_181 (and .def_77 A5))) (let ((.def_182 (or .def_181 .def_180))) (let ((.def_183 (and .def_182 .def_178))) (let ((.def_184 (or .def_183 .def_171))) (let ((.def_185 (not .def_184))) (let ((.def_186 (or .def_63 .def_36))) (let ((.def_187 (not .def_186))) (let ((.def_188 (or A4 .def_116))) (let ((.def_189 (not .def_188))) (let ((.def_190 (or .def_189 .def_187))) (let ((.def_191 (or A2 .def_6))) (let ((.def_192 (and A2 .def_2))) (let ((.def_193 (or .def_192 .def_191))) (let ((.def_194 (and .def_193 .def_190))) (let ((.def_195 (not .def_194))) (let ((.def_196 (and A18 A0))) (let ((.def_197 (not .def_196))) (let ((.def_198 (= .def_6 A0))) (let ((.def_199 (or .def_198 .def_197))) (let ((.def_200 (not .def_199))) (let ((.def_201 (and .def_28 .def_7))) (let ((.def_202 (not .def_201))) (let ((.def_203 (or .def_116 .def_101))) (let ((.def_204 (not .def_203))) (let ((.def_205 (and .def_204 .def_202))) (let ((.def_206 (and .def_205 .def_200))) (let ((.def_207 (and .def_206 .def_195))) (let ((.def_208 (= .def_207 .def_185))) (let ((.def_209 (not .def_208))) (let ((.def_210 (or .def_209 .def_161))) (let ((.def_211 (and .def_210 .def_110))) (let ((.def_212 (not .def_211))) .def_212))))))))))))))))))))))))))))))))))))))))))))))))))))))))))))))))))))))))))))))))))))))))))))))))))))))))))))))))))))))))))))))))))))))))))))))))))))))))))))))))))))))))))))))))))))))))))))))))))))))))))))))))))))))
(check-sat)
